10	5
0	2	1	8
1	1	6
2	2	9	7
3	2	5	10
4	1	2
5	0
6	1	3
7	1	11
8	1	11
9	1	11
10	1	11
11	0
0	0	0	0	0	0	0
1	9	4	3	4	5	2
2	9	5	5	2	1	3
3	8	5	5	3	4	2
4	7	5	1	1	1	4
5	9	4	1	1	2	5
6	10	3	4	2	5	1
7	9	1	5	3	1	1
8	8	3	3	5	2	5
9	4	1	5	2	1	4
10	3	2	3	4	4	3
11	0	0	0	0	0	0
9	8	7	8	6
